\ENCODING=ISO-8859-1
\Problem name: bSARP

Maximize
 obj: 6.79 x(0,3,0) + 7.094 x(0,4,0) + 6.659 x(0,5,0) + 6.896 x(0,12,0)
      + 7.094 x(0,13,0) + 6.659 x(0,14,0) + 7.909 x(0,16,0) + 10.588 x(1,3,0)
      + 10.902 x(1,5,0) + 10.453 x(1,12,0) + 10.902 x(1,14,0)
      + 11.674 x(1,16,0) + 9.843 x(2,3,0) + 9.823 x(2,4,0) + 9.709 x(2,12,0)
      + 9.823 x(2,13,0) + 10.946 x(2,16,0) + 7.587 x(3,12,0) + 7.543 x(3,13,0)
      + 7.807 x(3,14,0) + 8.335 x(3,16,0) + 11.326 x(4,12,0) + 11.775 x(4,14,0)
      + 12.547 x(4,16,0) + 11.388 x(5,12,0) + 11.502 x(5,13,0)
      + 12.625 x(5,16,0) + 8.499 x(6,0,0) + 8.634 x(6,1,0) + 8.844 x(6,2,0)
      + 8.343 x(6,3,0) + 8.634 x(6,4,0) + 8.844 x(6,5,0) + 8.933 x(6,9,0)
      + 8.634 x(6,10,0) + 8.844 x(6,11,0) + 8.46 x(6,12,0) + 8.634 x(6,13,0)
      + 8.844 x(6,14,0) + 9.721 x(6,16,0) + 13.207 x(7,0,0) + 13.636 x(7,2,0)
      + 13.322 x(7,3,0) + 13.636 x(7,5,0) + 13.75 x(7,9,0) + 13.636 x(7,11,0)
      + 13.187 x(7,12,0) + 13.636 x(7,14,0) + 14.408 x(7,16,0)
      + 12.871 x(8,0,0) + 13.044 x(8,1,0) + 13.064 x(8,3,0) + 13.044 x(8,4,0)
      + 13.377 x(8,9,0) + 13.044 x(8,10,0) + 12.93 x(8,12,0) + 13.044 x(8,13,0)
      + 14.167 x(8,16,0) + 7.693 x(9,0,0) + 8.4 x(9,1,0) + 8.534 x(9,2,0)
      + 8.296 x(9,3,0) + 8.4 x(9,4,0) + 8.534 x(9,5,0) + 8.084 x(9,12,0)
      + 8.4 x(9,13,0) + 8.534 x(9,14,0) + 9.37 x(9,16,0) + 12.736 x(10,0,0)
      + 12.851 x(10,3,0) + 13.165 x(10,5,0) + 12.716 x(10,12,0)
      + 13.165 x(10,14,0) + 13.937 x(10,16,0) + 12.65 x(11,0,0)
      + 12.843 x(11,3,0) + 12.823 x(11,4,0) + 12.709 x(11,12,0)
      + 12.823 x(11,13,0) + 13.946 x(11,16,0) + 8.422 x(12,16,0)
      + 12.689 x(13,16,0) + 12.07 x(14,16,0) - 1.074 x(15,0,0)
      - 0.374 x(15,1,0) - 0.235 x(15,2,0) - 0.534 x(15,3,0) - 0.374 x(15,4,0)
      - 0.235 x(15,5,0) - 0.925 x(15,6,0) - 0.374 x(15,7,0) - 0.235 x(15,8,0)
      - 0.074 x(15,9,0) - 0.374 x(15,10,0) - 0.235 x(15,11,0) - 0.69 x(15,12,0)
      - 0.374 x(15,13,0) - 0.235 x(15,14,0) + id189
Subject To
 Constraint1_0:    x(0,3,0) + x(0,4,0) + x(0,5,0) + x(0,12,0) + x(0,13,0)
                   + x(0,14,0) + x(0,16,0) + x(1,3,0) + x(1,5,0) + x(1,12,0)
                   + x(1,14,0) + x(1,16,0) + x(2,3,0) + x(2,4,0) + x(2,12,0)
                   + x(2,13,0) + x(2,16,0)  = 1
 Constraint1_1:    x(3,12,0) + x(3,13,0) + x(3,14,0) + x(3,16,0) + x(4,12,0)
                   + x(4,14,0) + x(4,16,0) + x(5,12,0) + x(5,13,0) + x(5,16,0)
                    = 1
 Constraint1_2:    x(6,0,0) + x(6,1,0) + x(6,2,0) + x(6,3,0) + x(6,4,0)
                   + x(6,5,0) + x(6,9,0) + x(6,10,0) + x(6,11,0) + x(6,12,0)
                   + x(6,13,0) + x(6,14,0) + x(6,16,0) + x(7,0,0) + x(7,2,0)
                   + x(7,3,0) + x(7,5,0) + x(7,9,0) + x(7,11,0) + x(7,12,0)
                   + x(7,14,0) + x(7,16,0) + x(8,0,0) + x(8,1,0) + x(8,3,0)
                   + x(8,4,0) + x(8,9,0) + x(8,10,0) + x(8,12,0) + x(8,13,0)
                   + x(8,16,0)  = 1
 Constraint1_3:    x(9,0,0) + x(9,1,0) + x(9,2,0) + x(9,3,0) + x(9,4,0)
                   + x(9,5,0) + x(9,12,0) + x(9,13,0) + x(9,14,0) + x(9,16,0)
                   + x(10,0,0) + x(10,3,0) + x(10,5,0) + x(10,12,0)
                   + x(10,14,0) + x(10,16,0) + x(11,0,0) + x(11,3,0)
                   + x(11,4,0) + x(11,12,0) + x(11,13,0) + x(11,16,0)  = 1
 Constraint1_4:    x(12,16,0) + x(13,16,0) + x(14,16,0)  = 1
 Constraint2_0:    x(6,0,0) + x(6,1,0) + x(6,2,0) + x(7,0,0) + x(7,2,0)
                   + x(8,0,0) + x(8,1,0) + x(9,0,0) + x(9,1,0) + x(9,2,0)
                   + x(10,0,0) + x(11,0,0) + x(15,0,0) + x(15,1,0) + x(15,2,0)
                    = 1
 Constraint2_1:    x(0,3,0) + x(0,4,0) + x(0,5,0) + x(1,3,0) + x(1,5,0)
                   + x(2,3,0) + x(2,4,0) + x(6,3,0) + x(6,4,0) + x(6,5,0)
                   + x(7,3,0) + x(7,5,0) + x(8,3,0) + x(8,4,0) + x(9,3,0)
                   + x(9,4,0) + x(9,5,0) + x(10,3,0) + x(10,5,0) + x(11,3,0)
                   + x(11,4,0) + x(15,3,0) + x(15,4,0) + x(15,5,0)  = 1
 Constraint2_2:    x(15,6,0) + x(15,7,0) + x(15,8,0)  = 1
 Constraint2_3:    x(6,9,0) + x(6,10,0) + x(6,11,0) + x(7,9,0) + x(7,11,0)
                   + x(8,9,0) + x(8,10,0) + x(15,9,0) + x(15,10,0) + x(15,11,0)
                    = 1
 Constraint2_4:    x(0,12,0) + x(0,13,0) + x(0,14,0) + x(1,12,0) + x(1,14,0)
                   + x(2,12,0) + x(2,13,0) + x(3,12,0) + x(3,13,0) + x(3,14,0)
                   + x(4,12,0) + x(4,14,0) + x(5,12,0) + x(5,13,0) + x(6,12,0)
                   + x(6,13,0) + x(6,14,0) + x(7,12,0) + x(7,14,0) + x(8,12,0)
                   + x(8,13,0) + x(9,12,0) + x(9,13,0) + x(9,14,0) + x(10,12,0)
                   + x(10,14,0) + x(11,12,0) + x(11,13,0) + x(15,12,0)
                   + x(15,13,0) + x(15,14,0)  = 1
 Constraint3_0:    x(15,0,0) + x(15,1,0) + x(15,2,0) + x(15,3,0) + x(15,4,0)
                   + x(15,5,0) + x(15,6,0) + x(15,7,0) + x(15,8,0) + x(15,9,0)
                   + x(15,10,0) + x(15,11,0) + x(15,12,0) + x(15,13,0)
                   + x(15,14,0)  = 1
 Constraint4_0:    x(0,16,0) + x(1,16,0) + x(2,16,0) + x(3,16,0) + x(4,16,0)
                   + x(5,16,0) + x(6,16,0) + x(7,16,0) + x(8,16,0) + x(9,16,0)
                   + x(10,16,0) + x(11,16,0) + x(12,16,0) + x(13,16,0)
                   + x(14,16,0)  = 1
 Constraint5_5:    x(1,3,0) + x(1,5,0) + x(1,12,0) + x(1,14,0) + x(1,16,0)
                   + x(4,12,0) + x(4,14,0) + x(4,16,0) + x(7,0,0) + x(7,2,0)
                   + x(7,3,0) + x(7,5,0) + x(7,9,0) + x(7,11,0) + x(7,12,0)
                   + x(7,14,0) + x(7,16,0) + x(10,0,0) + x(10,3,0) + x(10,5,0)
                   + x(10,12,0) + x(10,14,0) + x(10,16,0) + x(13,16,0) <= 1
 Constraint5_6:    x(2,3,0) + x(2,4,0) + x(2,12,0) + x(2,13,0) + x(2,16,0)
                   + x(5,12,0) + x(5,13,0) + x(5,16,0) + x(8,0,0) + x(8,1,0)
                   + x(8,3,0) + x(8,4,0) + x(8,9,0) + x(8,10,0) + x(8,12,0)
                   + x(8,13,0) + x(8,16,0) + x(11,0,0) + x(11,3,0) + x(11,4,0)
                   + x(11,12,0) + x(11,13,0) + x(11,16,0) + x(14,16,0) <= 1
 Constraint6_0_0:  x(0,3,0) + x(0,4,0) + x(0,5,0) + x(0,12,0) + x(0,13,0)
                   + x(0,14,0) + x(0,16,0) - x(6,0,0) - x(7,0,0) - x(8,0,0)
                   - x(9,0,0) - x(10,0,0) - x(11,0,0) - x(15,0,0)  = 0
 Constraint6_1_0:  x(1,3,0) + x(1,5,0) + x(1,12,0) + x(1,14,0) + x(1,16,0)
                   - x(6,1,0) - x(8,1,0) - x(9,1,0) - x(15,1,0)  = 0
 Constraint6_2_0:  x(2,3,0) + x(2,4,0) + x(2,12,0) + x(2,13,0) + x(2,16,0)
                   - x(6,2,0) - x(7,2,0) - x(9,2,0) - x(15,2,0)  = 0
 Constraint6_3_0:  - x(0,3,0) - x(1,3,0) - x(2,3,0) + x(3,12,0) + x(3,13,0)
                   + x(3,14,0) + x(3,16,0) - x(6,3,0) - x(7,3,0) - x(8,3,0)
                   - x(9,3,0) - x(10,3,0) - x(11,3,0) - x(15,3,0)  = 0
 Constraint6_4_0:  - x(0,4,0) - x(2,4,0) + x(4,12,0) + x(4,14,0) + x(4,16,0)
                   - x(6,4,0) - x(8,4,0) - x(9,4,0) - x(11,4,0) - x(15,4,0)
                    = 0
 Constraint6_5_0:  - x(0,5,0) - x(1,5,0) + x(5,12,0) + x(5,13,0) + x(5,16,0)
                   - x(6,5,0) - x(7,5,0) - x(9,5,0) - x(10,5,0) - x(15,5,0)
                    = 0
 Constraint6_6_0:  x(6,0,0) + x(6,1,0) + x(6,2,0) + x(6,3,0) + x(6,4,0)
                   + x(6,5,0) + x(6,9,0) + x(6,10,0) + x(6,11,0) + x(6,12,0)
                   + x(6,13,0) + x(6,14,0) + x(6,16,0) - x(15,6,0)  = 0
 Constraint6_7_0:  x(7,0,0) + x(7,2,0) + x(7,3,0) + x(7,5,0) + x(7,9,0)
                   + x(7,11,0) + x(7,12,0) + x(7,14,0) + x(7,16,0) - x(15,7,0)
                    = 0
 Constraint6_8_0:  x(8,0,0) + x(8,1,0) + x(8,3,0) + x(8,4,0) + x(8,9,0)
                   + x(8,10,0) + x(8,12,0) + x(8,13,0) + x(8,16,0) - x(15,8,0)
                    = 0
 Constraint6_9_0:  - x(6,9,0) - x(7,9,0) - x(8,9,0) + x(9,0,0) + x(9,1,0)
                   + x(9,2,0) + x(9,3,0) + x(9,4,0) + x(9,5,0) + x(9,12,0)
                   + x(9,13,0) + x(9,14,0) + x(9,16,0) - x(15,9,0)  = 0
 Constraint6_10_0: - x(6,10,0) - x(8,10,0) + x(10,0,0) + x(10,3,0) + x(10,5,0)
                   + x(10,12,0) + x(10,14,0) + x(10,16,0) - x(15,10,0)  = 0
 Constraint6_11_0: - x(6,11,0) - x(7,11,0) + x(11,0,0) + x(11,3,0) + x(11,4,0)
                   + x(11,12,0) + x(11,13,0) + x(11,16,0) - x(15,11,0)  = 0
 Constraint6_12_0: - x(0,12,0) - x(1,12,0) - x(2,12,0) - x(3,12,0) - x(4,12,0)
                   - x(5,12,0) - x(6,12,0) - x(7,12,0) - x(8,12,0) - x(9,12,0)
                   - x(10,12,0) - x(11,12,0) + x(12,16,0) - x(15,12,0)  = 0
 Constraint6_13_0: - x(0,13,0) - x(2,13,0) - x(3,13,0) - x(5,13,0) - x(6,13,0)
                   - x(8,13,0) - x(9,13,0) - x(11,13,0) + x(13,16,0)
                   - x(15,13,0)  = 0
 Constraint6_14_0: - x(0,14,0) - x(1,14,0) - x(3,14,0) - x(4,14,0) - x(6,14,0)
                   - x(7,14,0) - x(9,14,0) - x(10,14,0) + x(14,16,0)
                   - x(15,14,0)  = 0
Bounds
 0 <= x(0,3,0) <= 1
 0 <= x(0,4,0) <= 1
 0 <= x(0,5,0) <= 1
 0 <= x(0,12,0) <= 1
 0 <= x(0,13,0) <= 1
 0 <= x(0,14,0) <= 1
 0 <= x(0,16,0) <= 1
 0 <= x(1,3,0) <= 1
 0 <= x(1,5,0) <= 1
 0 <= x(1,12,0) <= 1
 0 <= x(1,14,0) <= 1
 0 <= x(1,16,0) <= 1
 0 <= x(2,3,0) <= 1
 0 <= x(2,4,0) <= 1
 0 <= x(2,12,0) <= 1
 0 <= x(2,13,0) <= 1
 0 <= x(2,16,0) <= 1
 0 <= x(3,12,0) <= 1
 0 <= x(3,13,0) <= 1
 0 <= x(3,14,0) <= 1
 0 <= x(3,16,0) <= 1
 0 <= x(4,12,0) <= 1
 0 <= x(4,14,0) <= 1
 0 <= x(4,16,0) <= 1
 0 <= x(5,12,0) <= 1
 0 <= x(5,13,0) <= 1
 0 <= x(5,16,0) <= 1
 0 <= x(6,0,0) <= 1
 0 <= x(6,1,0) <= 1
 0 <= x(6,2,0) <= 1
 0 <= x(6,3,0) <= 1
 0 <= x(6,4,0) <= 1
 0 <= x(6,5,0) <= 1
 0 <= x(6,9,0) <= 1
 0 <= x(6,10,0) <= 1
 0 <= x(6,11,0) <= 1
 0 <= x(6,12,0) <= 1
 0 <= x(6,13,0) <= 1
 0 <= x(6,14,0) <= 1
 0 <= x(6,16,0) <= 1
 0 <= x(7,0,0) <= 1
 0 <= x(7,2,0) <= 1
 0 <= x(7,3,0) <= 1
 0 <= x(7,5,0) <= 1
 0 <= x(7,9,0) <= 1
 0 <= x(7,11,0) <= 1
 0 <= x(7,12,0) <= 1
 0 <= x(7,14,0) <= 1
 0 <= x(7,16,0) <= 1
 0 <= x(8,0,0) <= 1
 0 <= x(8,1,0) <= 1
 0 <= x(8,3,0) <= 1
 0 <= x(8,4,0) <= 1
 0 <= x(8,9,0) <= 1
 0 <= x(8,10,0) <= 1
 0 <= x(8,12,0) <= 1
 0 <= x(8,13,0) <= 1
 0 <= x(8,16,0) <= 1
 0 <= x(9,0,0) <= 1
 0 <= x(9,1,0) <= 1
 0 <= x(9,2,0) <= 1
 0 <= x(9,3,0) <= 1
 0 <= x(9,4,0) <= 1
 0 <= x(9,5,0) <= 1
 0 <= x(9,12,0) <= 1
 0 <= x(9,13,0) <= 1
 0 <= x(9,14,0) <= 1
 0 <= x(9,16,0) <= 1
 0 <= x(10,0,0) <= 1
 0 <= x(10,3,0) <= 1
 0 <= x(10,5,0) <= 1
 0 <= x(10,12,0) <= 1
 0 <= x(10,14,0) <= 1
 0 <= x(10,16,0) <= 1
 0 <= x(11,0,0) <= 1
 0 <= x(11,3,0) <= 1
 0 <= x(11,4,0) <= 1
 0 <= x(11,12,0) <= 1
 0 <= x(11,13,0) <= 1
 0 <= x(11,16,0) <= 1
 0 <= x(12,16,0) <= 1
 0 <= x(13,16,0) <= 1
 0 <= x(14,16,0) <= 1
 0 <= x(15,0,0) <= 1
 0 <= x(15,1,0) <= 1
 0 <= x(15,2,0) <= 1
 0 <= x(15,3,0) <= 1
 0 <= x(15,4,0) <= 1
 0 <= x(15,5,0) <= 1
 0 <= x(15,6,0) <= 1
 0 <= x(15,7,0) <= 1
 0 <= x(15,8,0) <= 1
 0 <= x(15,9,0) <= 1
 0 <= x(15,10,0) <= 1
 0 <= x(15,11,0) <= 1
 0 <= x(15,12,0) <= 1
 0 <= x(15,13,0) <= 1
 0 <= x(15,14,0) <= 1
      id189 = 0
Binaries
 x(0,3,0)  x(0,4,0)  x(0,5,0)  x(0,12,0)  x(0,13,0)  x(0,14,0)  x(0,16,0) 
 x(1,3,0)  x(1,5,0)  x(1,12,0)  x(1,14,0)  x(1,16,0)  x(2,3,0)  x(2,4,0) 
 x(2,12,0)  x(2,13,0)  x(2,16,0)  x(3,12,0)  x(3,13,0)  x(3,14,0)  x(3,16,0) 
 x(4,12,0)  x(4,14,0)  x(4,16,0)  x(5,12,0)  x(5,13,0)  x(5,16,0)  x(6,0,0) 
 x(6,1,0)  x(6,2,0)  x(6,3,0)  x(6,4,0)  x(6,5,0)  x(6,9,0)  x(6,10,0) 
 x(6,11,0)  x(6,12,0)  x(6,13,0)  x(6,14,0)  x(6,16,0)  x(7,0,0)  x(7,2,0) 
 x(7,3,0)  x(7,5,0)  x(7,9,0)  x(7,11,0)  x(7,12,0)  x(7,14,0)  x(7,16,0) 
 x(8,0,0)  x(8,1,0)  x(8,3,0)  x(8,4,0)  x(8,9,0)  x(8,10,0)  x(8,12,0) 
 x(8,13,0)  x(8,16,0)  x(9,0,0)  x(9,1,0)  x(9,2,0)  x(9,3,0)  x(9,4,0) 
 x(9,5,0)  x(9,12,0)  x(9,13,0)  x(9,14,0)  x(9,16,0)  x(10,0,0)  x(10,3,0) 
 x(10,5,0)  x(10,12,0)  x(10,14,0)  x(10,16,0)  x(11,0,0)  x(11,3,0) 
 x(11,4,0)  x(11,12,0)  x(11,13,0)  x(11,16,0)  x(12,16,0)  x(13,16,0) 
 x(14,16,0)  x(15,0,0)  x(15,1,0)  x(15,2,0)  x(15,3,0)  x(15,4,0)  x(15,5,0) 
 x(15,6,0)  x(15,7,0)  x(15,8,0)  x(15,9,0)  x(15,10,0)  x(15,11,0) 
 x(15,12,0)  x(15,13,0)  x(15,14,0) 
End
